(set-info :status unsat)
(declare-datatypes ((T 0)) ((
  (f0)
  (f1 (proj0f1 T)))))
(assert (exists ((y15339 T) (y15338 T) (y15342 T) (y15343 T) (y15344 T) (y15337 T) (y15336 T)) (forall ((x15355 T) (x15347 T) (x15350 T) (x15351 T) (x15352 T) (x15353 T)) 
  (or (= x15352 x15351) 
    (and (= y15336 (f1 y15337)) (= y15337 (f1 y15338)) (= y15338 (f1 y15339)) (= y15339 (f1 y15336))) 
    (and (= x15347 (f1 x15350)) (= x15350 (f1 y15342)) (= y15342 x15355)) 
    (and (= y15343 (f1 y15344)) (= y15344 (f1 x15353)) (= x15353 (f1 y15343)))))))
(check-sat)
